StringID   Type       x          y          demand     ReadyTime  DueDate    ServiceTime
D0         d              97.424    47.743      0.000      0.000     23.983      0.000
S0         f              97.424    47.743      0.000      0.000     23.983      0.000
S1         f              37.350     2.190      0.000      0.000     23.983      0.000
S2         f              28.110    13.370      0.000      0.000     23.983      0.000
C0         c               9.506    77.401      0.015     18.024     20.679      0.058
C1         c              33.045    66.964      0.003     16.922     19.058      0.052
C2         c              45.124    55.847      0.072     11.189     13.658      0.086
C3         c              85.636    46.507      0.003     17.669     21.333      0.052
C4         c              92.123    96.395      0.004      8.000     11.284      0.052

Q Vehicle fuel tank capacity /133.4800/
C Vehicle load capacity /1.1000/
r fuel consumption rate /0.4038/
g inverse refueling rate /0.0081/
v average Velocity /31.4800/
gv charging speed /124.0200/

--------------------
instance_id /58/
number of clusters /5/
working_startTime (hour) /8.00/
working_endTime (hour) /21.33/
instance_endTime (hour) /23.98/
service_time_type /cargoweight/
demand_type /random/
instance_type /RC/
instance x range /[0.0, 100.0]/
instance y range /[0.0, 100.0]/
cs_time_to_depot (hour)/[2.3949190134206146,2.4577133491451355]/
